% Instance for pentominoes model generated using https://github.com/zayenz/minizinc-pentominoes-generator
% Instance generated for board size 20 with 5 tiles using 42 as seed
% Generated board
%    33333444444444444444
%    33333334444444444444
%    33333334444444444444
%    33333334444444444444
%    13333333444444444444
%    11333533342444444444
%    11355555552422244444
%    11155522222222244444
%    11155522222222222444
%    11152222222222222444
%    11152222222222222222
%    11152222222222222222
%    11152222222222222222
%    11152222222222222222
%    11112222222222222222
%    11112222222222222222
%    11112222222222222222
%    11112222222222222222
%    11112222222222222222
%    11222222222222222222

size = 20;
tiles = 5;
expressions = [
    "( ([2 3 4 5 6]* 1{1} [2 3 4 5 6]{19} [2 3 4 5 6] 1{2} [2 3 4 5 6]{18} [2 3 4 5 6] 1{2} [2 3 4 5 6]{18} [2 3 4 5 6] 1{3} [2 3 4 5 6]{17} [2 3 4 5 6] 1{3} [2 3 4 5 6]{17} [2 3 4 5 6] 1{3} [2 3 4 5 6]{17} [2 3 4 5 6] 1{3} [2 3 4 5 6]{17} [2 3 4 5 6] 1{3} [2 3 4 5 6]{17} [2 3 4 5 6] 1{3} [2 3 4 5 6]{17} [2 3 4 5 6] 1{3} [2 3 4 5 6]{17} [2 3 4 5 6] 1{4} [2 3 4 5 6]{16} [2 3 4 5 6] 1{4} [2 3 4 5 6]{16} [2 3 4 5 6] 1{4} [2 3 4 5 6]{16} [2 3 4 5 6] 1{4} [2 3 4 5 6]{16} [2 3 4 5 6] 1{4} [2 3 4 5 6]{16} [2 3 4 5 6] 1{2} [2 3 4 5 6]*) | ([2 3 4 5 6]* 1{16} [2 3 4 5 6]{4} [2 3 4 5 6] 1{15} [2 3 4 5 6]{5} [2 3 4 5 6] [2 3 4 5 6]{1} 1{12} [2 3 4 5 6]{7} [2 3 4 5 6] [2 3 4 5 6]{1} 1{5} [2 3 4 5 6]*) | ([2 3 4 5 6]* 1{2} [2 3 4 5 6] [2 3 4 5 6]{16} 1{4} [2 3 4 5 6] [2 3 4 5 6]{16} 1{4} [2 3 4 5 6] [2 3 4 5 6]{16} 1{4} [2 3 4 5 6] [2 3 4 5 6]{16} 1{4} [2 3 4 5 6] [2 3 4 5 6]{16} 1{4} [2 3 4 5 6] [2 3 4 5 6]{17} 1{3} [2 3 4 5 6] [2 3 4 5 6]{17} 1{3} [2 3 4 5 6] [2 3 4 5 6]{17} 1{3} [2 3 4 5 6] [2 3 4 5 6]{17} 1{3} [2 3 4 5 6] [2 3 4 5 6]{17} 1{3} [2 3 4 5 6] [2 3 4 5 6]{17} 1{3} [2 3 4 5 6] [2 3 4 5 6]{17} 1{3} [2 3 4 5 6] [2 3 4 5 6]{18} 1{2} [2 3 4 5 6] [2 3 4 5 6]{18} 1{2} [2 3 4 5 6] [2 3 4 5 6]{19} 1{1} [2 3 4 5 6]*) | ([2 3 4 5 6]* 1{5} [2 3 4 5 6]{1} [2 3 4 5 6] [2 3 4 5 6]{7} 1{12} [2 3 4 5 6]{1} [2 3 4 5 6] [2 3 4 5 6]{5} 1{15} [2 3 4 5 6] [2 3 4 5 6]{4} 1{16} [2 3 4 5 6]*) | ([2 3 4 5 6]* 1{1} [2 3 4 5 6] [2 3 4 5 6]{18} 1{2} [2 3 4 5 6] [2 3 4 5 6]{18} 1{2} [2 3 4 5 6] [2 3 4 5 6]{17} 1{3} [2 3 4 5 6] [2 3 4 5 6]{17} 1{3} [2 3 4 5 6] [2 3 4 5 6]{17} 1{3} [2 3 4 5 6] [2 3 4 5 6]{17} 1{3} [2 3 4 5 6] [2 3 4 5 6]{17} 1{3} [2 3 4 5 6] [2 3 4 5 6]{17} 1{3} [2 3 4 5 6] [2 3 4 5 6]{17} 1{3} [2 3 4 5 6] [2 3 4 5 6]{16} 1{4} [2 3 4 5 6] [2 3 4 5 6]{16} 1{4} [2 3 4 5 6] [2 3 4 5 6]{16} 1{4} [2 3 4 5 6] [2 3 4 5 6]{16} 1{4} [2 3 4 5 6] [2 3 4 5 6]{16} 1{4} [2 3 4 5 6] [2 3 4 5 6]{18} 1{2} [2 3 4 5 6]*) | ([2 3 4 5 6]* 1{16} [2 3 4 5 6] [2 3 4 5 6]{5} 1{15} [2 3 4 5 6] [2 3 4 5 6]{7} 1{12} [2 3 4 5 6]{1} [2 3 4 5 6] [2 3 4 5 6]{14} 1{5} [2 3 4 5 6]*) | ([2 3 4 5 6]* 1{2} [2 3 4 5 6]{18} [2 3 4 5 6] 1{4} [2 3 4 5 6]{16} [2 3 4 5 6] 1{4} [2 3 4 5 6]{16} [2 3 4 5 6] 1{4} [2 3 4 5 6]{16} [2 3 4 5 6] 1{4} [2 3 4 5 6]{16} [2 3 4 5 6] 1{4} [2 3 4 5 6]{16} [2 3 4 5 6] 1{3} [2 3 4 5 6]{17} [2 3 4 5 6] 1{3} [2 3 4 5 6]{17} [2 3 4 5 6] 1{3} [2 3 4 5 6]{17} [2 3 4 5 6] 1{3} [2 3 4 5 6]{17} [2 3 4 5 6] 1{3} [2 3 4 5 6]{17} [2 3 4 5 6] 1{3} [2 3 4 5 6]{17} [2 3 4 5 6] 1{3} [2 3 4 5 6]{17} [2 3 4 5 6] 1{2} [2 3 4 5 6]{18} [2 3 4 5 6] 1{2} [2 3 4 5 6]{18} [2 3 4 5 6] 1{1} [2 3 4 5 6]*) | ([2 3 4 5 6]* 1{5} [2 3 4 5 6]{14} [2 3 4 5 6] [2 3 4 5 6]{1} 1{12} [2 3 4 5 6]{7} [2 3 4 5 6] 1{15} [2 3 4 5 6]{5} [2 3 4 5 6] 1{16} [2 3 4 5 6]*) )",
    "( ([1 3 4 5 6]* 2{1} [1 3 4 5 6]{9} [1 3 4 5 6] [1 3 4 5 6]{10} 2{1} [1 3 4 5 6]{1} 2{3} [1 3 4 5 6]{5} [1 3 4 5 6] [1 3 4 5 6]{6} 2{9} [1 3 4 5 6]{5} [1 3 4 5 6] [1 3 4 5 6]{6} 2{11} [1 3 4 5 6]{3} [1 3 4 5 6] [1 3 4 5 6]{4} 2{13} [1 3 4 5 6]{3} [1 3 4 5 6] [1 3 4 5 6]{4} 2{16} [1 3 4 5 6] [1 3 4 5 6]{4} 2{16} [1 3 4 5 6] [1 3 4 5 6]{4} 2{16} [1 3 4 5 6] [1 3 4 5 6]{4} 2{16} [1 3 4 5 6] [1 3 4 5 6]{4} 2{16} [1 3 4 5 6] [1 3 4 5 6]{4} 2{16} [1 3 4 5 6] [1 3 4 5 6]{4} 2{16} [1 3 4 5 6] [1 3 4 5 6]{4} 2{16} [1 3 4 5 6] [1 3 4 5 6]{4} 2{16} [1 3 4 5 6] [1 3 4 5 6]{2} 2{18} [1 3 4 5 6]*) | ([1 3 4 5 6]* 2{1} [1 3 4 5 6]{19} [1 3 4 5 6] 2{1} [1 3 4 5 6]{19} [1 3 4 5 6] 2{11} [1 3 4 5 6]{9} [1 3 4 5 6] 2{11} [1 3 4 5 6]{9} [1 3 4 5 6] 2{13} [1 3 4 5 6]{7} [1 3 4 5 6] 2{13} [1 3 4 5 6]{7} [1 3 4 5 6] 2{13} [1 3 4 5 6]{7} [1 3 4 5 6] 2{13} [1 3 4 5 6]{7} [1 3 4 5 6] 2{15} [1 3 4 5 6]{5} [1 3 4 5 6] 2{13} [1 3 4 5 6]{7} [1 3 4 5 6] 2{14} [1 3 4 5 6]{6} [1 3 4 5 6] 2{14} [1 3 4 5 6]{6} [1 3 4 5 6] 2{14} [1 3 4 5 6]{6} [1 3 4 5 6] 2{12} [1 3 4 5 6]{8} [1 3 4 5 6] 2{12} [1 3 4 5 6]{8} [1 3 4 5 6] 2{10} [1 3 4 5 6]{10} [1 3 4 5 6] 2{10} [1 3 4 5 6]{10} [1 3 4 5 6] 2{10} [1 3 4 5 6]*) | ([1 3 4 5 6]* 2{18} [1 3 4 5 6]{2} [1 3 4 5 6] 2{16} [1 3 4 5 6]{4} [1 3 4 5 6] 2{16} [1 3 4 5 6]{4} [1 3 4 5 6] 2{16} [1 3 4 5 6]{4} [1 3 4 5 6] 2{16} [1 3 4 5 6]{4} [1 3 4 5 6] 2{16} [1 3 4 5 6]{4} [1 3 4 5 6] 2{16} [1 3 4 5 6]{4} [1 3 4 5 6] 2{16} [1 3 4 5 6]{4} [1 3 4 5 6] 2{16} [1 3 4 5 6]{4} [1 3 4 5 6] 2{16} [1 3 4 5 6]{4} [1 3 4 5 6] [1 3 4 5 6]{3} 2{13} [1 3 4 5 6]{4} [1 3 4 5 6] [1 3 4 5 6]{3} 2{11} [1 3 4 5 6]{6} [1 3 4 5 6] [1 3 4 5 6]{5} 2{9} [1 3 4 5 6]{6} [1 3 4 5 6] [1 3 4 5 6]{5} 2{3} [1 3 4 5 6]{1} 2{1} [1 3 4 5 6]{10} [1 3 4 5 6] [1 3 4 5 6]{9} 2{1} [1 3 4 5 6]*) | ([1 3 4 5 6]* 2{10} [1 3 4 5 6] [1 3 4 5 6]{10} 2{10} [1 3 4 5 6] [1 3 4 5 6]{10} 2{10} [1 3 4 5 6] [1 3 4 5 6]{8} 2{12} [1 3 4 5 6] [1 3 4 5 6]{8} 2{12} [1 3 4 5 6] [1 3 4 5 6]{6} 2{14} [1 3 4 5 6] [1 3 4 5 6]{6} 2{14} [1 3 4 5 6] [1 3 4 5 6]{6} 2{14} [1 3 4 5 6] [1 3 4 5 6]{7} 2{13} [1 3 4 5 6] [1 3 4 5 6]{5} 2{15} [1 3 4 5 6] [1 3 4 5 6]{7} 2{13} [1 3 4 5 6] [1 3 4 5 6]{7} 2{13} [1 3 4 5 6] [1 3 4 5 6]{7} 2{13} [1 3 4 5 6] [1 3 4 5 6]{7} 2{13} [1 3 4 5 6] [1 3 4 5 6]{9} 2{11} [1 3 4 5 6] [1 3 4 5 6]{9} 2{11} [1 3 4 5 6] [1 3 4 5 6]{19} 2{1} [1 3 4 5 6] [1 3 4 5 6]{19} 2{1} [1 3 4 5 6]*) | ([1 3 4 5 6]* 2{1} [1 3 4 5 6]{10} [1 3 4 5 6] [1 3 4 5 6]{5} 2{3} [1 3 4 5 6]{1} 2{1} [1 3 4 5 6]{10} [1 3 4 5 6] [1 3 4 5 6]{5} 2{9} [1 3 4 5 6]{6} [1 3 4 5 6] [1 3 4 5 6]{3} 2{11} [1 3 4 5 6]{6} [1 3 4 5 6] [1 3 4 5 6]{3} 2{13} [1 3 4 5 6]{4} [1 3 4 5 6] 2{16} [1 3 4 5 6]{4} [1 3 4 5 6] 2{16} [1 3 4 5 6]{4} [1 3 4 5 6] 2{16} [1 3 4 5 6]{4} [1 3 4 5 6] 2{16} [1 3 4 5 6]{4} [1 3 4 5 6] 2{16} [1 3 4 5 6]{4} [1 3 4 5 6] 2{16} [1 3 4 5 6]{4} [1 3 4 5 6] 2{16} [1 3 4 5 6]{4} [1 3 4 5 6] 2{16} [1 3 4 5 6]{4} [1 3 4 5 6] 2{16} [1 3 4 5 6]{4} [1 3 4 5 6] 2{18} [1 3 4 5 6]*) | ([1 3 4 5 6]* 2{1} [1 3 4 5 6] [1 3 4 5 6]{19} 2{1} [1 3 4 5 6] [1 3 4 5 6]{9} 2{11} [1 3 4 5 6] [1 3 4 5 6]{9} 2{11} [1 3 4 5 6] [1 3 4 5 6]{7} 2{13} [1 3 4 5 6] [1 3 4 5 6]{7} 2{13} [1 3 4 5 6] [1 3 4 5 6]{7} 2{13} [1 3 4 5 6] [1 3 4 5 6]{7} 2{13} [1 3 4 5 6] [1 3 4 5 6]{5} 2{15} [1 3 4 5 6] [1 3 4 5 6]{7} 2{13} [1 3 4 5 6] [1 3 4 5 6]{6} 2{14} [1 3 4 5 6] [1 3 4 5 6]{6} 2{14} [1 3 4 5 6] [1 3 4 5 6]{6} 2{14} [1 3 4 5 6] [1 3 4 5 6]{8} 2{12} [1 3 4 5 6] [1 3 4 5 6]{8} 2{12} [1 3 4 5 6] [1 3 4 5 6]{10} 2{10} [1 3 4 5 6] [1 3 4 5 6]{10} 2{10} [1 3 4 5 6] [1 3 4 5 6]{10} 2{10} [1 3 4 5 6]*) | ([1 3 4 5 6]* 2{18} [1 3 4 5 6] [1 3 4 5 6]{4} 2{16} [1 3 4 5 6] [1 3 4 5 6]{4} 2{16} [1 3 4 5 6] [1 3 4 5 6]{4} 2{16} [1 3 4 5 6] [1 3 4 5 6]{4} 2{16} [1 3 4 5 6] [1 3 4 5 6]{4} 2{16} [1 3 4 5 6] [1 3 4 5 6]{4} 2{16} [1 3 4 5 6] [1 3 4 5 6]{4} 2{16} [1 3 4 5 6] [1 3 4 5 6]{4} 2{16} [1 3 4 5 6] [1 3 4 5 6]{4} 2{16} [1 3 4 5 6] [1 3 4 5 6]{4} 2{13} [1 3 4 5 6]{3} [1 3 4 5 6] [1 3 4 5 6]{6} 2{11} [1 3 4 5 6]{3} [1 3 4 5 6] [1 3 4 5 6]{6} 2{9} [1 3 4 5 6]{5} [1 3 4 5 6] [1 3 4 5 6]{10} 2{1} [1 3 4 5 6]{1} 2{3} [1 3 4 5 6]{5} [1 3 4 5 6] [1 3 4 5 6]{10} 2{1} [1 3 4 5 6]*) | ([1 3 4 5 6]* 2{10} [1 3 4 5 6]{10} [1 3 4 5 6] 2{10} [1 3 4 5 6]{10} [1 3 4 5 6] 2{10} [1 3 4 5 6]{10} [1 3 4 5 6] 2{12} [1 3 4 5 6]{8} [1 3 4 5 6] 2{12} [1 3 4 5 6]{8} [1 3 4 5 6] 2{14} [1 3 4 5 6]{6} [1 3 4 5 6] 2{14} [1 3 4 5 6]{6} [1 3 4 5 6] 2{14} [1 3 4 5 6]{6} [1 3 4 5 6] 2{13} [1 3 4 5 6]{7} [1 3 4 5 6] 2{15} [1 3 4 5 6]{5} [1 3 4 5 6] 2{13} [1 3 4 5 6]{7} [1 3 4 5 6] 2{13} [1 3 4 5 6]{7} [1 3 4 5 6] 2{13} [1 3 4 5 6]{7} [1 3 4 5 6] 2{13} [1 3 4 5 6]{7} [1 3 4 5 6] 2{11} [1 3 4 5 6]{9} [1 3 4 5 6] 2{11} [1 3 4 5 6]{9} [1 3 4 5 6] 2{1} [1 3 4 5 6]{19} [1 3 4 5 6] 2{1} [1 3 4 5 6]*) )",
    "( ([1 2 4 5 6]* 3{5} [1 2 4 5 6]{15} [1 2 4 5 6] 3{7} [1 2 4 5 6]{13} [1 2 4 5 6] 3{7} [1 2 4 5 6]{13} [1 2 4 5 6] 3{7} [1 2 4 5 6]{13} [1 2 4 5 6] [1 2 4 5 6]{1} 3{7} [1 2 4 5 6]{12} [1 2 4 5 6] [1 2 4 5 6]{2} 3{3} [1 2 4 5 6]{1} 3{3} [1 2 4 5 6]{11} [1 2 4 5 6] [1 2 4 5 6]{2} 3{1} [1 2 4 5 6]*) | ([1 2 4 5 6]* 3{4} [1 2 4 5 6] [1 2 4 5 6]{15} 3{5} [1 2 4 5 6] [1 2 4 5 6]{13} 3{7} [1 2 4 5 6] [1 2 4 5 6]{14} 3{6} [1 2 4 5 6] [1 2 4 5 6]{14} 3{6} [1 2 4 5 6] [1 2 4 5 6]{15} 3{4} [1 2 4 5 6]{1} [1 2 4 5 6] [1 2 4 5 6]{14} 3{5} [1 2 4 5 6]{1} [1 2 4 5 6] [1 2 4 5 6]{14} 3{2} [1 2 4 5 6]{4} [1 2 4 5 6] [1 2 4 5 6]{14} 3{1} [1 2 4 5 6]*) | ([1 2 4 5 6]* 3{1} [1 2 4 5 6]{2} [1 2 4 5 6] [1 2 4 5 6]{11} 3{3} [1 2 4 5 6]{1} 3{3} [1 2 4 5 6]{2} [1 2 4 5 6] [1 2 4 5 6]{12} 3{7} [1 2 4 5 6]{1} [1 2 4 5 6] [1 2 4 5 6]{13} 3{7} [1 2 4 5 6] [1 2 4 5 6]{13} 3{7} [1 2 4 5 6] [1 2 4 5 6]{13} 3{7} [1 2 4 5 6] [1 2 4 5 6]{15} 3{5} [1 2 4 5 6]*) | ([1 2 4 5 6]* 3{1} [1 2 4 5 6]{14} [1 2 4 5 6] [1 2 4 5 6]{4} 3{2} [1 2 4 5 6]{14} [1 2 4 5 6] [1 2 4 5 6]{1} 3{5} [1 2 4 5 6]{14} [1 2 4 5 6] [1 2 4 5 6]{1} 3{4} [1 2 4 5 6]{15} [1 2 4 5 6] 3{6} [1 2 4 5 6]{14} [1 2 4 5 6] 3{6} [1 2 4 5 6]{14} [1 2 4 5 6] 3{7} [1 2 4 5 6]{13} [1 2 4 5 6] 3{5} [1 2 4 5 6]{15} [1 2 4 5 6] 3{4} [1 2 4 5 6]*) | ([1 2 4 5 6]* 3{5} [1 2 4 5 6] [1 2 4 5 6]{13} 3{7} [1 2 4 5 6] [1 2 4 5 6]{13} 3{7} [1 2 4 5 6] [1 2 4 5 6]{13} 3{7} [1 2 4 5 6] [1 2 4 5 6]{12} 3{7} [1 2 4 5 6]{1} [1 2 4 5 6] [1 2 4 5 6]{11} 3{3} [1 2 4 5 6]{1} 3{3} [1 2 4 5 6]{2} [1 2 4 5 6] [1 2 4 5 6]{17} 3{1} [1 2 4 5 6]*) | ([1 2 4 5 6]* 3{4} [1 2 4 5 6]{16} [1 2 4 5 6] 3{5} [1 2 4 5 6]{15} [1 2 4 5 6] 3{7} [1 2 4 5 6]{13} [1 2 4 5 6] 3{6} [1 2 4 5 6]{14} [1 2 4 5 6] 3{6} [1 2 4 5 6]{14} [1 2 4 5 6] [1 2 4 5 6]{1} 3{4} [1 2 4 5 6]{15} [1 2 4 5 6] [1 2 4 5 6]{1} 3{5} [1 2 4 5 6]{14} [1 2 4 5 6] [1 2 4 5 6]{4} 3{2} [1 2 4 5 6]{14} [1 2 4 5 6] [1 2 4 5 6]{5} 3{1} [1 2 4 5 6]*) | ([1 2 4 5 6]* 3{1} [1 2 4 5 6]{17} [1 2 4 5 6] [1 2 4 5 6]{2} 3{3} [1 2 4 5 6]{1} 3{3} [1 2 4 5 6]{11} [1 2 4 5 6] [1 2 4 5 6]{1} 3{7} [1 2 4 5 6]{12} [1 2 4 5 6] 3{7} [1 2 4 5 6]{13} [1 2 4 5 6] 3{7} [1 2 4 5 6]{13} [1 2 4 5 6] 3{7} [1 2 4 5 6]{13} [1 2 4 5 6] 3{5} [1 2 4 5 6]*) | ([1 2 4 5 6]* 3{1} [1 2 4 5 6]{5} [1 2 4 5 6] [1 2 4 5 6]{14} 3{2} [1 2 4 5 6]{4} [1 2 4 5 6] [1 2 4 5 6]{14} 3{5} [1 2 4 5 6]{1} [1 2 4 5 6] [1 2 4 5 6]{15} 3{4} [1 2 4 5 6]{1} [1 2 4 5 6] [1 2 4 5 6]{14} 3{6} [1 2 4 5 6] [1 2 4 5 6]{14} 3{6} [1 2 4 5 6] [1 2 4 5 6]{13} 3{7} [1 2 4 5 6] [1 2 4 5 6]{15} 3{5} [1 2 4 5 6] [1 2 4 5 6]{16} 3{4} [1 2 4 5 6]*) )",
    "( ([1 2 3 5 6]* 4{15} [1 2 3 5 6] [1 2 3 5 6]{7} 4{13} [1 2 3 5 6] [1 2 3 5 6]{7} 4{13} [1 2 3 5 6] [1 2 3 5 6]{7} 4{13} [1 2 3 5 6] [1 2 3 5 6]{8} 4{12} [1 2 3 5 6] [1 2 3 5 6]{9} 4{1} [1 2 3 5 6]{1} 4{9} [1 2 3 5 6] [1 2 3 5 6]{11} 4{1} [1 2 3 5 6]{3} 4{5} [1 2 3 5 6] [1 2 3 5 6]{15} 4{5} [1 2 3 5 6] [1 2 3 5 6]{17} 4{3} [1 2 3 5 6] [1 2 3 5 6]{17} 4{3} [1 2 3 5 6]*) | ([1 2 3 5 6]* 4{1} [1 2 3 5 6] [1 2 3 5 6]{19} 4{1} [1 2 3 5 6] [1 2 3 5 6]{16} 4{4} [1 2 3 5 6] [1 2 3 5 6]{15} 4{5} [1 2 3 5 6] [1 2 3 5 6]{14} 4{6} [1 2 3 5 6] [1 2 3 5 6]{15} 4{5} [1 2 3 5 6] [1 2 3 5 6]{13} 4{7} [1 2 3 5 6] [1 2 3 5 6]{14} 4{6} [1 2 3 5 6] [1 2 3 5 6]{14} 4{6} [1 2 3 5 6] [1 2 3 5 6]{14} 4{6} [1 2 3 5 6] [1 2 3 5 6]{12} 4{8} [1 2 3 5 6] [1 2 3 5 6]{12} 4{8} [1 2 3 5 6] [1 2 3 5 6]{10} 4{10} [1 2 3 5 6] [1 2 3 5 6]{10} 4{10} [1 2 3 5 6] [1 2 3 5 6]{10} 4{10} [1 2 3 5 6]*) | ([1 2 3 5 6]* 4{3} [1 2 3 5 6]{17} [1 2 3 5 6] 4{3} [1 2 3 5 6]{17} [1 2 3 5 6] 4{5} [1 2 3 5 6]{15} [1 2 3 5 6] 4{5} [1 2 3 5 6]{3} 4{1} [1 2 3 5 6]{11} [1 2 3 5 6] 4{9} [1 2 3 5 6]{1} 4{1} [1 2 3 5 6]{9} [1 2 3 5 6] 4{12} [1 2 3 5 6]{8} [1 2 3 5 6] 4{13} [1 2 3 5 6]{7} [1 2 3 5 6] 4{13} [1 2 3 5 6]{7} [1 2 3 5 6] 4{13} [1 2 3 5 6]{7} [1 2 3 5 6] 4{15} [1 2 3 5 6]*) | ([1 2 3 5 6]* 4{10} [1 2 3 5 6]{10} [1 2 3 5 6] 4{10} [1 2 3 5 6]{10} [1 2 3 5 6] 4{10} [1 2 3 5 6]{10} [1 2 3 5 6] 4{8} [1 2 3 5 6]{12} [1 2 3 5 6] 4{8} [1 2 3 5 6]{12} [1 2 3 5 6] 4{6} [1 2 3 5 6]{14} [1 2 3 5 6] 4{6} [1 2 3 5 6]{14} [1 2 3 5 6] 4{6} [1 2 3 5 6]{14} [1 2 3 5 6] 4{7} [1 2 3 5 6]{13} [1 2 3 5 6] 4{5} [1 2 3 5 6]{15} [1 2 3 5 6] 4{6} [1 2 3 5 6]{14} [1 2 3 5 6] 4{5} [1 2 3 5 6]{15} [1 2 3 5 6] 4{4} [1 2 3 5 6]{16} [1 2 3 5 6] 4{1} [1 2 3 5 6]{19} [1 2 3 5 6] 4{1} [1 2 3 5 6]*) | ([1 2 3 5 6]* 4{15} [1 2 3 5 6]{5} [1 2 3 5 6] 4{13} [1 2 3 5 6]{7} [1 2 3 5 6] 4{13} [1 2 3 5 6]{7} [1 2 3 5 6] 4{13} [1 2 3 5 6]{7} [1 2 3 5 6] 4{12} [1 2 3 5 6]{8} [1 2 3 5 6] 4{9} [1 2 3 5 6]{1} 4{1} [1 2 3 5 6]{9} [1 2 3 5 6] 4{5} [1 2 3 5 6]{3} 4{1} [1 2 3 5 6]{11} [1 2 3 5 6] 4{5} [1 2 3 5 6]{15} [1 2 3 5 6] 4{3} [1 2 3 5 6]{17} [1 2 3 5 6] 4{3} [1 2 3 5 6]*) | ([1 2 3 5 6]* 4{1} [1 2 3 5 6]{19} [1 2 3 5 6] 4{1} [1 2 3 5 6]{19} [1 2 3 5 6] 4{4} [1 2 3 5 6]{16} [1 2 3 5 6] 4{5} [1 2 3 5 6]{15} [1 2 3 5 6] 4{6} [1 2 3 5 6]{14} [1 2 3 5 6] 4{5} [1 2 3 5 6]{15} [1 2 3 5 6] 4{7} [1 2 3 5 6]{13} [1 2 3 5 6] 4{6} [1 2 3 5 6]{14} [1 2 3 5 6] 4{6} [1 2 3 5 6]{14} [1 2 3 5 6] 4{6} [1 2 3 5 6]{14} [1 2 3 5 6] 4{8} [1 2 3 5 6]{12} [1 2 3 5 6] 4{8} [1 2 3 5 6]{12} [1 2 3 5 6] 4{10} [1 2 3 5 6]{10} [1 2 3 5 6] 4{10} [1 2 3 5 6]{10} [1 2 3 5 6] 4{10} [1 2 3 5 6]*) | ([1 2 3 5 6]* 4{3} [1 2 3 5 6] [1 2 3 5 6]{17} 4{3} [1 2 3 5 6] [1 2 3 5 6]{15} 4{5} [1 2 3 5 6] [1 2 3 5 6]{11} 4{1} [1 2 3 5 6]{3} 4{5} [1 2 3 5 6] [1 2 3 5 6]{9} 4{1} [1 2 3 5 6]{1} 4{9} [1 2 3 5 6] [1 2 3 5 6]{8} 4{12} [1 2 3 5 6] [1 2 3 5 6]{7} 4{13} [1 2 3 5 6] [1 2 3 5 6]{7} 4{13} [1 2 3 5 6] [1 2 3 5 6]{7} 4{13} [1 2 3 5 6] [1 2 3 5 6]{5} 4{15} [1 2 3 5 6]*) | ([1 2 3 5 6]* 4{10} [1 2 3 5 6] [1 2 3 5 6]{10} 4{10} [1 2 3 5 6] [1 2 3 5 6]{10} 4{10} [1 2 3 5 6] [1 2 3 5 6]{12} 4{8} [1 2 3 5 6] [1 2 3 5 6]{12} 4{8} [1 2 3 5 6] [1 2 3 5 6]{14} 4{6} [1 2 3 5 6] [1 2 3 5 6]{14} 4{6} [1 2 3 5 6] [1 2 3 5 6]{14} 4{6} [1 2 3 5 6] [1 2 3 5 6]{13} 4{7} [1 2 3 5 6] [1 2 3 5 6]{15} 4{5} [1 2 3 5 6] [1 2 3 5 6]{14} 4{6} [1 2 3 5 6] [1 2 3 5 6]{15} 4{5} [1 2 3 5 6] [1 2 3 5 6]{16} 4{4} [1 2 3 5 6] [1 2 3 5 6]{19} 4{1} [1 2 3 5 6] [1 2 3 5 6]{19} 4{1} [1 2 3 5 6]*) )",
    "( ([1 2 3 4 6]* 5{1} [1 2 3 4 6]{14} [1 2 3 4 6] [1 2 3 4 6]{3} 5{7} [1 2 3 4 6]{10} [1 2 3 4 6] [1 2 3 4 6]{3} 5{3} [1 2 3 4 6]{14} [1 2 3 4 6] [1 2 3 4 6]{3} 5{3} [1 2 3 4 6]{14} [1 2 3 4 6] [1 2 3 4 6]{3} 5{1} [1 2 3 4 6]{16} [1 2 3 4 6] [1 2 3 4 6]{3} 5{1} [1 2 3 4 6]{16} [1 2 3 4 6] [1 2 3 4 6]{3} 5{1} [1 2 3 4 6]{16} [1 2 3 4 6] [1 2 3 4 6]{3} 5{1} [1 2 3 4 6]{16} [1 2 3 4 6] [1 2 3 4 6]{3} 5{1} [1 2 3 4 6]*) | ([1 2 3 4 6]* 5{8} [1 2 3 4 6]{6} [1 2 3 4 6] [1 2 3 4 6]{11} 5{3} [1 2 3 4 6]{6} [1 2 3 4 6] [1 2 3 4 6]{11} 5{4} [1 2 3 4 6]{5} [1 2 3 4 6] [1 2 3 4 6]{13} 5{1} [1 2 3 4 6]{6} [1 2 3 4 6] [1 2 3 4 6]{13} 5{1} [1 2 3 4 6]{6} [1 2 3 4 6] [1 2 3 4 6]{13} 5{1} [1 2 3 4 6]{6} [1 2 3 4 6] [1 2 3 4 6]{13} 5{1} [1 2 3 4 6]*) | ([1 2 3 4 6]* 5{1} [1 2 3 4 6]{3} [1 2 3 4 6] [1 2 3 4 6]{16} 5{1} [1 2 3 4 6]{3} [1 2 3 4 6] [1 2 3 4 6]{16} 5{1} [1 2 3 4 6]{3} [1 2 3 4 6] [1 2 3 4 6]{16} 5{1} [1 2 3 4 6]{3} [1 2 3 4 6] [1 2 3 4 6]{16} 5{1} [1 2 3 4 6]{3} [1 2 3 4 6] [1 2 3 4 6]{14} 5{3} [1 2 3 4 6]{3} [1 2 3 4 6] [1 2 3 4 6]{14} 5{3} [1 2 3 4 6]{3} [1 2 3 4 6] [1 2 3 4 6]{10} 5{7} [1 2 3 4 6]{3} [1 2 3 4 6] [1 2 3 4 6]{14} 5{1} [1 2 3 4 6]*) | ([1 2 3 4 6]* 5{1} [1 2 3 4 6]{13} [1 2 3 4 6] [1 2 3 4 6]{6} 5{1} [1 2 3 4 6]{13} [1 2 3 4 6] [1 2 3 4 6]{6} 5{1} [1 2 3 4 6]{13} [1 2 3 4 6] [1 2 3 4 6]{6} 5{1} [1 2 3 4 6]{13} [1 2 3 4 6] [1 2 3 4 6]{5} 5{4} [1 2 3 4 6]{11} [1 2 3 4 6] [1 2 3 4 6]{6} 5{3} [1 2 3 4 6]{11} [1 2 3 4 6] [1 2 3 4 6]{6} 5{8} [1 2 3 4 6]*) | ([1 2 3 4 6]* 5{1} [1 2 3 4 6]{5} [1 2 3 4 6] [1 2 3 4 6]{10} 5{7} [1 2 3 4 6]{3} [1 2 3 4 6] [1 2 3 4 6]{14} 5{3} [1 2 3 4 6]{3} [1 2 3 4 6] [1 2 3 4 6]{14} 5{3} [1 2 3 4 6]{3} [1 2 3 4 6] [1 2 3 4 6]{16} 5{1} [1 2 3 4 6]{3} [1 2 3 4 6] [1 2 3 4 6]{16} 5{1} [1 2 3 4 6]{3} [1 2 3 4 6] [1 2 3 4 6]{16} 5{1} [1 2 3 4 6]{3} [1 2 3 4 6] [1 2 3 4 6]{16} 5{1} [1 2 3 4 6]{3} [1 2 3 4 6] [1 2 3 4 6]{16} 5{1} [1 2 3 4 6]*) | ([1 2 3 4 6]* 5{8} [1 2 3 4 6]{6} [1 2 3 4 6] [1 2 3 4 6]{6} 5{3} [1 2 3 4 6]{11} [1 2 3 4 6] [1 2 3 4 6]{5} 5{4} [1 2 3 4 6]{11} [1 2 3 4 6] [1 2 3 4 6]{6} 5{1} [1 2 3 4 6]{13} [1 2 3 4 6] [1 2 3 4 6]{6} 5{1} [1 2 3 4 6]{13} [1 2 3 4 6] [1 2 3 4 6]{6} 5{1} [1 2 3 4 6]{13} [1 2 3 4 6] [1 2 3 4 6]{6} 5{1} [1 2 3 4 6]*) | ([1 2 3 4 6]* 5{1} [1 2 3 4 6]{16} [1 2 3 4 6] [1 2 3 4 6]{3} 5{1} [1 2 3 4 6]{16} [1 2 3 4 6] [1 2 3 4 6]{3} 5{1} [1 2 3 4 6]{16} [1 2 3 4 6] [1 2 3 4 6]{3} 5{1} [1 2 3 4 6]{16} [1 2 3 4 6] [1 2 3 4 6]{3} 5{1} [1 2 3 4 6]{16} [1 2 3 4 6] [1 2 3 4 6]{3} 5{3} [1 2 3 4 6]{14} [1 2 3 4 6] [1 2 3 4 6]{3} 5{3} [1 2 3 4 6]{14} [1 2 3 4 6] [1 2 3 4 6]{3} 5{7} [1 2 3 4 6]{10} [1 2 3 4 6] [1 2 3 4 6]{5} 5{1} [1 2 3 4 6]*) | ([1 2 3 4 6]* 5{1} [1 2 3 4 6]{6} [1 2 3 4 6] [1 2 3 4 6]{13} 5{1} [1 2 3 4 6]{6} [1 2 3 4 6] [1 2 3 4 6]{13} 5{1} [1 2 3 4 6]{6} [1 2 3 4 6] [1 2 3 4 6]{13} 5{1} [1 2 3 4 6]{6} [1 2 3 4 6] [1 2 3 4 6]{11} 5{4} [1 2 3 4 6]{5} [1 2 3 4 6] [1 2 3 4 6]{11} 5{3} [1 2 3 4 6]{6} [1 2 3 4 6] [1 2 3 4 6]{6} 5{8} [1 2 3 4 6]*) )",
];
